c 0.001455068588256836 (encode time in sec)
p cnf 74 112
1 2 3 0
1 -2 4 0
-1 2 6 0
-1 -2 5 0
7 1 2 8 0
7 1 -2 9 0
7 -1 2 10 0
7 -1 -2 11 0
-7 1 2 12 0
-7 1 -2 13 0
-7 -1 2 14 0
-7 -1 -2 15 0
16 17 18 19 7 1 2 20 0
16 17 18 19 7 1 -2 21 0
16 17 18 19 7 -1 2 23 0
16 17 18 19 7 -1 -2 22 0
16 17 18 19 -7 1 2 24 0
16 17 18 19 -7 1 -2 25 0
16 17 18 19 -7 -1 2 26 0
16 17 18 19 -7 -1 -2 27 0
16 17 18 -19 7 1 2 28 0
16 17 18 -19 7 1 -2 29 0
16 17 18 -19 7 -1 2 47 0
16 17 18 -19 7 -1 -2 49 0
16 17 18 -19 -7 1 2 71 0
16 17 18 -19 -7 1 -2 69 0
16 17 18 -19 -7 -1 2 30 0
16 17 18 -19 -7 -1 -2 72 0
16 17 -18 19 7 1 2 57 0
16 17 -18 19 7 1 -2 33 0
16 17 -18 19 7 -1 2 36 0
16 17 -18 19 7 -1 -2 50 0
16 17 -18 19 -7 1 2 51 0
16 17 -18 19 -7 1 -2 52 0
16 17 -18 19 -7 -1 2 58 0
16 17 -18 19 -7 -1 -2 53 0
16 17 -18 -19 7 1 2 62 0
16 17 -18 -19 7 1 -2 40 0
16 17 -18 -19 7 -1 2 44 0
16 17 -18 -19 7 -1 -2 46 0
16 17 -18 -19 -7 1 2 54 0
16 17 -18 -19 -7 1 -2 37 0
16 17 -18 -19 -7 -1 2 73 0
16 17 -18 -19 -7 -1 -2 63 0
16 -17 18 19 7 1 2 68 0
16 -17 18 19 7 1 -2 31 0
16 -17 18 19 7 -1 2 61 0
16 -17 18 19 7 -1 -2 46 0
16 -17 18 19 -7 1 2 64 0
16 -17 18 19 -7 1 -2 34 0
16 -17 18 19 -7 -1 2 38 0
16 -17 18 19 -7 -1 -2 65 0
16 -17 18 -19 7 1 2 68 0
16 -17 18 -19 7 1 -2 31 0
16 -17 18 -19 7 -1 2 61 0
16 -17 18 -19 7 -1 -2 46 0
16 -17 18 -19 -7 1 2 55 0
16 -17 18 -19 -7 1 -2 70 0
16 -17 18 -19 -7 -1 2 41 0
16 -17 18 -19 -7 -1 -2 39 0
16 -17 -18 19 7 1 2 68 0
16 -17 -18 19 7 1 -2 31 0
16 -17 -18 19 7 -1 2 61 0
16 -17 -18 19 7 -1 -2 46 0
16 -17 -18 19 -7 1 2 66 0
16 -17 -18 19 -7 1 -2 42 0
16 -17 -18 19 -7 -1 2 59 0
16 -17 -18 19 -7 -1 -2 65 0
16 -17 -18 -19 7 1 2 68 0
16 -17 -18 -19 7 1 -2 31 0
16 -17 -18 -19 7 -1 2 61 0
16 -17 -18 -19 7 -1 -2 46 0
16 -17 -18 -19 -7 1 2 60 0
16 -17 -18 -19 -7 1 -2 67 0
16 -17 -18 -19 -7 -1 2 56 0
16 -17 -18 -19 -7 -1 -2 65 0
-16 17 18 19 7 1 2 68 0
-16 17 18 19 7 1 -2 31 0
-16 17 18 19 7 -1 2 61 0
-16 17 18 19 7 -1 -2 46 0
-16 17 18 19 -7 1 2 32 0
-16 17 18 19 -7 1 -2 45 0
-16 17 18 19 -7 -1 2 56 0
-16 17 18 19 -7 -1 -2 65 0
-16 17 18 -19 7 1 2 68 0
-16 17 18 -19 7 1 -2 31 0
-16 17 18 -19 7 -1 2 61 0
-16 17 18 -19 7 -1 -2 46 0
-16 17 18 -19 -7 1 2 43 0
-16 17 18 -19 -7 1 -2 48 0
-16 17 18 -19 -7 -1 2 35 0
-16 17 18 -19 -7 -1 -2 65 0
-16 17 -18 19 7 1 2 68 0
-16 17 -18 19 7 1 -2 31 0
-16 17 -18 19 7 -1 2 61 0
-16 17 -18 19 7 -1 -2 46 0
-16 17 -18 19 -7 1 2 60 0
-16 17 -18 19 -7 1 -2 48 0
-16 17 -18 19 -7 -1 2 41 0
-16 17 -18 19 -7 -1 -2 65 0
-16 17 -18 -19 7 1 2 68 0
-16 17 -18 -19 7 1 -2 31 0
-16 17 -18 -19 7 -1 2 61 0
-16 17 -18 -19 7 -1 -2 46 0
-16 17 -18 -19 -7 1 2 43 0
-16 17 -18 -19 -7 1 -2 74 0
-16 17 -18 -19 -7 -1 2 35 0
-16 17 -18 -19 -7 -1 -2 65 0
-16 -17 18 19 0
-16 -17 18 -19 0
-16 -17 -18 19 0
-16 -17 -18 -19 0
